POSCAR file written by Ovito Basic 3.0.0
   1.00000000000000     
    12.9375197732604867    0.0000001981274742    0.0004070568061722
     0.0000000732171989    4.9777547839820073   -0.0000001309755152
    -0.0069216780534946   -0.0000004633253362   18.3089709256731261
   Ni   Sc Ti K
   105 1 1 1
Direct
  0.9997029773505411  0.0000000067421137  0.9997728191803270
  0.1660887154655241  0.2498773526348176  0.9997466922400842
  0.0551167848533495  0.2498828231031734  0.1106762086395425
  0.2215993779442480  0.0000000588026355  0.1102161075802495
  0.1108102039339719  0.0000000722405211  0.2215383404531064
  0.2769521848985750  0.2505092917411913  0.2205297570454477
  0.9999671778171512  0.0000000768499008  0.3326828019519251
  0.1661989543492147  0.2505700264890736  0.3324537112616205
  0.0553594331522481  0.2505666210473039  0.4437885502229650
  0.2204890122244476  0.9999997065297622  0.4431291746464147
  0.1063511959566712  0.9999998744337503  0.5553359096136210
  0.2717877118372212  0.2449867272233199  0.5549881262767318
  0.9988033432054527  0.9999998688461089  0.6668783048416583
  0.1652870164939383  0.2493394254909674  0.6668899746457190
  0.0548251791178011  0.2496554264611356  0.7779717628952081
  0.2220644491213008  0.0000000630670144  0.7775201527042925
  0.1106502599000361  0.0000000313849779  0.8886768847726635
  0.2771839224927283  0.2498059699654857  0.8890405542213030
  0.9995966169543780  0.4999999777657377  0.9998141198146916
  0.1660886751048548  0.7501226259311981  0.9997467737668181
  0.0551167677906916  0.7501171688306304  0.1106762771542084
  0.2216245924662333  0.4999999259039873  0.1104165719064389
  0.1104614485367259  0.4999999203787349  0.2215111089313830
  0.2769522095705271  0.7494907168862520  0.2205295699820407
  0.9998358166102550  0.4999999119853487  0.3326334127125195
  0.1661989734213311  0.7494299258231687  0.3324534803504813
  0.0553595147929029  0.7494333458577709  0.4437882565703425
  0.2223772224721293  0.5000001324714067  0.4441021691750254
  0.1091074886319735  0.5000000613482930  0.5554632026089061
  0.2717875032789365  0.7550130149904600  0.5549889664605584
  0.9992791815567812  0.5000001063231041  0.6669704237946082
  0.1652868341604694  0.7506604944520419  0.6668903442552596
  0.0548251015134048  0.7503445579867850  0.7779719545090076
  0.2201529307542976  0.4999999563991457  0.7792979436048686
  0.1102366700852662  0.4999999593060140  0.8892498271649526
  0.2771838414835012  0.7501940159810989  0.8890406880531460
  0.3328468629189506  0.0000000343586673  0.9997619314041422
  0.4997451336253235  0.2501529988307407  0.0001552402115199
  0.3885627992598981  0.2501583481411736  0.1103803446986603
  0.5554847503019560  0.9999999534434051  0.1107849194822860
  0.4443283192945848  0.9999999231984460  0.2209463046431197
  0.6111342334661753  0.2498115753320686  0.2215237072431919
  0.3313986972139412  0.9999997692563842  0.3292808437127490
  0.4998878831240224  0.2494551118413003  0.3320309468219683
  0.3863269016392292  0.2449271969349862  0.4401130161733265
  0.5542903898641448  0.9999997406600180  0.4451196806950626
  0.4441965738364897  0.9999998157910994  0.5552908860814512
  0.6166038133992879  0.2450067658737455  0.5555856126994426
  0.3340769053930847  0.0000001656274098  0.6654530675098898
  0.5020444918846144  0.2449333448469530  0.6704403018532469
  0.3884618154415617  0.2494628754074379  0.7785166963704131
  0.5569468207868119  0.0000001744208673  0.7812697374584108
  0.4439856838805667  0.0000000398261158  0.8895964833502640
  0.6113561299758671  0.2505086791747472  0.8900202856233150
  0.3328246562489424  0.4999999527737733  0.9997327323567963
  0.4997451703191391  0.7498469899168785  0.0001551486963163
  0.3885628393412954  0.7498416399026121  0.1103802511954973
  0.5555097570291313  0.5000000412247524  0.1108135027711916
  0.4442047724205088  0.5000000944863846  0.2212130817394691
  0.6111341038225302  0.7501884252459335  0.2215238862962553
  0.3326232376757738  0.5000001125659089  0.3312660518185620
  0.4998876216536773  0.7505449340850185  0.3320313142946563
  0.3863267552455496  0.7550728793373320  0.4401136960557349
  0.5585032162536919  0.4999998314953322  0.4409922136099689
  0.3298426551690916  0.5000000242723267  0.6695497697664324
  0.5020443039411342  0.7550663667912739  0.6704410038738364
  0.3884616501036075  0.7505370737755198  0.7785169794408069
  0.5557374514204578  0.4999997650668173  0.7792881997512935
  0.4441145199876131  0.4999999297537955  0.8893316828691189
  0.6113561654338705  0.7494912789267412  0.8900201128551761
  0.6666833030607716  0.9999999312354860  0.0003163292223179
  0.8331646947049068  0.2498852023375132  0.9998458112816819
  0.7221995663242678  0.2498846830490104  0.1107862579696002
  0.8885711962216635  0.9999999821896339  0.1107498606073864
  0.7776444945546503  0.9999999545611484  0.2218771712907595
  0.9443360993197628  0.2497723507920754  0.2216275858467887
  0.6662944113294232  0.9999998985999806  0.3330410325637846
  0.8335101204118843  0.2496579612337453  0.3326059560656667
  0.7230696778547490  0.2493527983294443  0.4436918994836842
  0.8895548376766099  0.0000001167262272  0.4437172518415438
  0.7820311589816037  0.0000001104590336  0.5552430008966377
  0.9441908020582621  0.2512649292224456  0.5552916610458009
  0.6678815566028194  0.0000001934462738  0.6674405079209184
  0.8330029977760340  0.2505591276852037  0.6667804007227344
  0.7221361102573570  0.2505767111835075  0.7781154890555712
  0.8883497797840868  0.9999999113094949  0.7778501694691206
  0.7774936817785384  0.9999999179545001  0.8890106024807406
  0.9439550657433132  0.2497614288648692  0.8888971504092844
  0.6666548358673393  0.5000000604843867  0.0001108231103276
  0.8331646722605479  0.7501147889154129  0.9998458830113292
  0.7221995185018248  0.7501153132055495  0.1107863458934387
  0.8886799350377886  0.5000000120451120  0.1107073401141723
  0.7780641975380919  0.5000000375855312  0.2213176230516256
  0.9443360674145619  0.7502276419835632  0.2216276992504103
  0.6681854375179754  0.5000000560395301  0.3312695068716576
  0.8335100434180981  0.7503420342062480  0.3326061434949489
  0.7230695189938239  0.7506472234930928  0.4436922456442697
  0.8890865790198600  0.4999998812164831  0.4436194965652663
  0.7792771947944523  0.4999999051222491  0.5551115619342674
  0.9441908442338591  0.7487350496984918  0.5552912454153688
  0.6660049859149021  0.4999997838004002  0.6664814275340764
  0.8330030608159015  0.7494408574675178  0.6667801092782106
  0.7221361413401357  0.7494232636454767  0.7781152452752818
  0.8884931231997059  0.5000000793644660  0.7779051841930609
  0.7778423523068319  0.5000000698722240  0.8890444961596354
  0.9439550316289632  0.7502385602357657  0.8888972696497837
  0.6166036199332617  0.7549932706235196  0.5555864235532761
  0.4442041331498678  0.4999998635549840  0.5552932423938887
