Shifted vacuum
1.00000
12.937519773260487 1.981274742e-07 0.0004070568061722
7.32171989e-08 4.977754783982007 -1.309755152e-07
-0.0069216780534946 -4.633253362e-07 24.308970925673126
Ni Sc Ti K
105 1 1 1
Cartesian 
 1.074284 1.244439e+00 18.304813
 3.226903 2.488267e+00 18.304334
 0.713074 1.243855e+00  2.026368
 2.866946 2.927051e-07  2.017944
 1.433609 3.595956e-07  4.056139
 3.583074 1.246974e+00  4.037673
12.937095 3.825400e-07  6.091080
 2.150202 1.247276e+00  6.086886
 0.716214 1.247259e+00  8.125312
 2.852581 4.977753e+00  8.113240
 2.454047 1.244438e+00 10.167630
 4.594386 2.463923e+00 10.161262
 1.062645 1.244438e+00 12.209856
 3.216531 2.485589e+00 12.210070
 1.787428 2.487162e+00 14.243863
 3.951090 1.244439e+00 14.235595
 2.509667 1.244439e+00 16.270760
 4.664199 2.487912e+00 16.277419
 1.072908 3.733316e+00 18.305569
 3.226902 6.104018e-04 18.304336
 0.713074 3.733899e+00  2.026369
 2.867273 2.488877e+00  2.021614
 1.429097 2.488877e+00  4.055641
 3.583075 3.730781e+00  4.037670
12.935396 2.488877e+00  6.090176
 2.150203 3.730478e+00  6.086882
 0.716215 3.730495e+00  8.125307
 2.877010 2.488878e+00  8.131054
 2.489707 3.733316e+00 10.169960
 4.594383 2.495356e-02 10.161278
 1.068801 3.733317e+00 12.211543
 3.216528 3.287779e-03 12.210077
 1.787427 1.715125e-03 14.243867
 3.926360 3.733316e+00 14.268144
 2.504316 3.733316e+00 16.281250
 4.664198 9.657640e-04 16.277421
 5.384340 1.244439e+00 18.304613
 7.543589 2.489639e+00 18.311815
 5.027039 1.245227e+00  2.020951
 7.186595 4.977755e+00  2.028358
 5.748506 4.977754e+00  4.045300
 7.906561 1.243501e+00  4.055871
 4.287477 4.977754e+00  6.028794
 6.467309 1.241726e+00  6.079145
 4.998112 1.219188e+00  8.058017
 7.171143 4.977753e+00  8.149684
 6.824929 1.244438e+00 10.166805
 9.055451 2.464022e+00 10.172202
 5.400253 1.244440e+00 12.183762
 7.573337 2.463657e+00 12.275073
 6.103859 2.486204e+00 14.253841
 8.283637 1.244440e+00 14.304246
 6.822200 1.244439e+00 16.287597
 8.987559 2.491409e+00 16.295357
 5.384052 3.733316e+00 18.304079
 7.543590 4.976993e+00 18.311813
 5.027039 3.732528e+00  2.020949
 7.186918 2.488878e+00  2.028881
 5.746908 2.488878e+00  4.050184
 7.906560 3.734254e+00  4.055875
 4.303320 2.488878e+00  6.065141
 6.467306 3.736029e+00  6.079152
 4.998110 3.758568e+00  8.058029
 7.225646 2.488877e+00  8.074114
 5.345473 3.733316e+00 12.258768
 7.573335 2.521913e-02 12.275086
 6.103857 2.673422e-03 14.253846
 8.267991 3.733315e+00 14.267966
 6.823867 3.733316e+00 16.282749
 8.987559 4.975222e+00 16.295354
 9.703355 1.244438e+00 18.314764
11.857211 2.488306e+00 18.306149
 9.343471 1.243865e+00  2.028383
11.495907 4.977755e+00  2.027716
10.060791 4.977755e+00  4.062343
12.217367 1.243306e+00  4.057773
 8.620197 4.977754e+00  6.097639
10.783554 1.242736e+00  6.089673
 9.354728 1.241217e+00  8.123543
11.508633 5.810345e-07  8.124007
11.195670 1.244439e+00 10.165929
 0.356094 2.495174e+00 10.166820
 9.718857 1.244440e+00 12.220150
11.855119 2.491661e+00 12.208064
10.420777 2.491748e+00 14.246495
12.571169 1.244438e+00 14.241637
11.136967 1.244438e+00 16.276870
 0.353044 2.487690e+00 16.274793
 9.702987 3.733316e+00 18.311001
11.857211 5.713911e-04 18.306151
 9.343471 3.733890e+00  2.028384
11.497314 2.488877e+00  2.026938
10.066221 2.488878e+00  4.052098
12.217367 3.734449e+00  4.057775
 8.644662 2.488878e+00  6.065204
10.783553 3.735019e+00  6.089677
 9.354726 3.736538e+00  8.123549
11.502575 2.488877e+00  8.122217
11.160041 3.733316e+00 10.163522
 0.356095 4.971458e+00 10.166812
 9.694579 3.733315e+00 12.202590
11.855120 4.974972e+00 12.208059
10.420777 4.974884e+00 14.246490
12.573024 3.733316e+00 14.242644
11.141477 3.733316e+00 16.277491
 0.353044 1.187494e-03 16.274795
 9.055448 2.485528e-02 10.172216
 6.825026 3.733315e+00 10.166849