Perfect vacuum
1.00000
12.937519773260487 1.981274742e-07 0.0004070568061722
7.32171989e-08 4.977754783982007 -1.309755152e-07
-0.0069216780534946 -4.633253362e-07 24.308970925673126
Ni Sc Ti K
105 1 1 1
Cartesian 
12.933677 3.356059e-08 18.304813
 2.148776 1.243828e+00 18.304334
 0.713074 1.243855e+00  2.026368
 2.866946 2.927051e-07  2.017944
 1.433609 3.595956e-07  4.056139
 3.583074 1.246974e+00  4.037673
12.937095 3.825400e-07  6.091080
 2.150202 1.247276e+00  6.086886
 0.716214 1.247259e+00  8.125312
 2.852581 4.977753e+00  8.113240
 1.375921 4.977754e+00 10.167630
 3.516259 1.219484e+00 10.161262
12.922038 4.977754e+00 12.209856
 2.138404 1.241151e+00 12.210070
 0.709302 1.242723e+00 14.243863
 2.872963 3.139321e-07 14.235595
 1.431540 1.562267e-07 16.270760
 3.586072 1.243473e+00 16.277419
12.932301 2.488877e+00 18.305569
 2.148776 3.733926e+00 18.304336
 0.713074 3.733899e+00  2.026369
 2.867273 2.488877e+00  2.021614
 1.429097 2.488877e+00  4.055641
 3.583075 3.730781e+00  4.037670
12.935396 2.488877e+00  6.090176
 2.150203 3.730478e+00  6.086882
 0.716215 3.730495e+00  8.125307
 2.877010 2.488878e+00  8.131054
 1.411580 2.488878e+00 10.169960
 3.516256 3.758270e+00 10.161278
12.928194 2.488878e+00 12.211543
 2.138402 3.736604e+00 12.210077
 0.709301 3.735031e+00 14.243867
 2.848233 2.488877e+00 14.268144
 1.426189 2.488877e+00 16.281250
 3.586071 3.734282e+00 16.277421
 4.306213 1.710290e-07 18.304613
 6.465463 1.245200e+00 18.311815
 5.027039 1.245227e+00  2.020951
 7.186595 4.977755e+00  2.028358
 5.748506 4.977754e+00  4.045300
 7.906561 1.243501e+00  4.055871
 4.287477 4.977754e+00  6.028794
 6.467309 1.241726e+00  6.079145
 4.998112 1.219188e+00  8.058017
 7.171143 4.977753e+00  8.149684
 5.746802 4.977754e+00 10.166805
 7.977324 1.219584e+00 10.172202
 4.322127 8.244526e-07 12.183762
 6.495211 1.219218e+00 12.275073
 5.025732 1.241765e+00 14.253841
 7.205511 8.682243e-07 14.304246
 5.744074 1.982446e-07 16.287597
 7.909432 1.246971e+00 16.295357
 4.305926 2.488877e+00 18.304079
 6.465463 3.732554e+00 18.311813
 5.027039 3.732528e+00  2.020949
 7.186918 2.488878e+00  2.028881
 5.746908 2.488878e+00  4.050184
 7.906560 3.734254e+00  4.055875
 4.303320 2.488878e+00  6.065141
 6.467306 3.736029e+00  6.079152
 4.998110 3.758568e+00  8.058029
 7.225646 2.488877e+00  8.074114
 4.267346 2.488878e+00 12.258768
 6.495208 3.758535e+00 12.275086
 5.025730 3.735990e+00 14.253846
 7.189864 2.488876e+00 14.267966
 5.745740 2.488877e+00 16.282749
 7.909432 3.730784e+00 16.295354
 8.625228 4.977754e+00 18.314764
10.779085 1.243867e+00 18.306149
 9.343471 1.243865e+00  2.028383
11.495907 4.977755e+00  2.027716
10.060791 4.977755e+00  4.062343
12.217367 1.243306e+00  4.057773
 8.620197 4.977754e+00  6.097639
10.783554 1.242736e+00  6.089673
 9.354728 1.241217e+00  8.123543
11.508633 5.810345e-07  8.124007
10.117544 5.498380e-07 10.165929
12.215487 1.250735e+00 10.166820
 8.640731 9.629281e-07 12.220150
10.776993 1.247222e+00 12.208064
 9.342650 1.247309e+00 14.246495
11.493043 4.977754e+00 14.241637
10.058840 4.977754e+00 16.276870
12.212437 1.243251e+00 16.274793
 8.624860 2.488878e+00 18.311001
10.779084 3.733887e+00 18.306151
 9.343471 3.733890e+00  2.028384
11.497314 2.488877e+00  2.026938
10.066221 2.488878e+00  4.052098
12.217367 3.734449e+00  4.057775
 8.644662 2.488878e+00  6.065204
10.783553 3.735019e+00  6.089677
 9.354726 3.736538e+00  8.123549
11.502575 2.488877e+00  8.122217
10.081914 2.488877e+00 10.163522
12.215488 3.727019e+00 10.166812
 8.616453 2.488876e+00 12.202590
10.776994 3.730533e+00 12.208059
 9.342651 3.730445e+00 14.246490
11.494897 2.488878e+00 14.242644
10.063351 2.488878e+00 16.277491
12.212437 3.734504e+00 16.274795
 7.977322 3.758171e+00 10.172216
 5.746900 2.488877e+00 10.166849